Minimize

15 x_0_0 + 5 x_0_1 + 30 x_1_0 + 70 x_1_1 + 50 x_2_0 + 100 x_2_1


Subject To

a0: x_0_0 + x_1_0 + x_2_0 <= 90
a1: x_0_1 + x_1_1 + x_2_1 <= 50
b0: x_0_0 + x_0_1 >= 70
b1: x_1_0 + x_1_1 >= 15
b2: x_2_0 + x_2_1 >= 5





General

 x_0_0 x_0_1 x_1_0 x_1_1 x_2_0 x_2_1



End
